Route #1: 1 3 35 49 41 45 7 32 31 21 28 13
Route #2: 1 15 14 4 23 39 47 24
Route #3: 1 8 38 10 34 50 44 37 12 25
Route #4: 1 26 17 48 27 5 19
Route #5: 1 29 30 20 33 2
Route #6: 1 22 9 43 18 40
Route #7: 1 16 36 11 46 42
Route #8: 1 6
cost 1414
